p cnf 125 1875
1 2 3 4 5 0
-1 -2 0
-1 -3 0
-1 -4 0
-1 -5 0
-2 -3 0
-2 -4 0
-2 -5 0
-3 -4 0
-3 -5 0
-4 -5 0
6 7 8 9 10 0
-6 -7 0
-6 -8 0
-6 -9 0
-6 -10 0
-7 -8 0
-7 -9 0
-7 -10 0
-8 -9 0
-8 -10 0
-9 -10 0
11 12 13 14 15 0
-11 -12 0
-11 -13 0
-11 -14 0
-11 -15 0
-12 -13 0
-12 -14 0
-12 -15 0
-13 -14 0
-13 -15 0
-14 -15 0
16 17 18 19 20 0
-16 -17 0
-16 -18 0
-16 -19 0
-16 -20 0
-17 -18 0
-17 -19 0
-17 -20 0
-18 -19 0
-18 -20 0
-19 -20 0
21 22 23 24 25 0
-21 -22 0
-21 -23 0
-21 -24 0
-21 -25 0
-22 -23 0
-22 -24 0
-22 -25 0
-23 -24 0
-23 -25 0
-24 -25 0
26 27 28 29 30 0
-26 -27 0
-26 -28 0
-26 -29 0
-26 -30 0
-27 -28 0
-27 -29 0
-27 -30 0
-28 -29 0
-28 -30 0
-29 -30 0
31 32 33 34 35 0
-31 -32 0
-31 -33 0
-31 -34 0
-31 -35 0
-32 -33 0
-32 -34 0
-32 -35 0
-33 -34 0
-33 -35 0
-34 -35 0
36 37 38 39 40 0
-36 -37 0
-36 -38 0
-36 -39 0
-36 -40 0
-37 -38 0
-37 -39 0
-37 -40 0
-38 -39 0
-38 -40 0
-39 -40 0
41 42 43 44 45 0
-41 -42 0
-41 -43 0
-41 -44 0
-41 -45 0
-42 -43 0
-42 -44 0
-42 -45 0
-43 -44 0
-43 -45 0
-44 -45 0
46 47 48 49 50 0
-46 -47 0
-46 -48 0
-46 -49 0
-46 -50 0
-47 -48 0
-47 -49 0
-47 -50 0
-48 -49 0
-48 -50 0
-49 -50 0
51 52 53 54 55 0
-51 -52 0
-51 -53 0
-51 -54 0
-51 -55 0
-52 -53 0
-52 -54 0
-52 -55 0
-53 -54 0
-53 -55 0
-54 -55 0
56 57 58 59 60 0
-56 -57 0
-56 -58 0
-56 -59 0
-56 -60 0
-57 -58 0
-57 -59 0
-57 -60 0
-58 -59 0
-58 -60 0
-59 -60 0
61 62 63 64 65 0
-61 -62 0
-61 -63 0
-61 -64 0
-61 -65 0
-62 -63 0
-62 -64 0
-62 -65 0
-63 -64 0
-63 -65 0
-64 -65 0
66 67 68 69 70 0
-66 -67 0
-66 -68 0
-66 -69 0
-66 -70 0
-67 -68 0
-67 -69 0
-67 -70 0
-68 -69 0
-68 -70 0
-69 -70 0
71 72 73 74 75 0
-71 -72 0
-71 -73 0
-71 -74 0
-71 -75 0
-72 -73 0
-72 -74 0
-72 -75 0
-73 -74 0
-73 -75 0
-74 -75 0
76 77 78 79 80 0
-76 -77 0
-76 -78 0
-76 -79 0
-76 -80 0
-77 -78 0
-77 -79 0
-77 -80 0
-78 -79 0
-78 -80 0
-79 -80 0
81 82 83 84 85 0
-81 -82 0
-81 -83 0
-81 -84 0
-81 -85 0
-82 -83 0
-82 -84 0
-82 -85 0
-83 -84 0
-83 -85 0
-84 -85 0
86 87 88 89 90 0
-86 -87 0
-86 -88 0
-86 -89 0
-86 -90 0
-87 -88 0
-87 -89 0
-87 -90 0
-88 -89 0
-88 -90 0
-89 -90 0
91 92 93 94 95 0
-91 -92 0
-91 -93 0
-91 -94 0
-91 -95 0
-92 -93 0
-92 -94 0
-92 -95 0
-93 -94 0
-93 -95 0
-94 -95 0
96 97 98 99 100 0
-96 -97 0
-96 -98 0
-96 -99 0
-96 -100 0
-97 -98 0
-97 -99 0
-97 -100 0
-98 -99 0
-98 -100 0
-99 -100 0
101 102 103 104 105 0
-101 -102 0
-101 -103 0
-101 -104 0
-101 -105 0
-102 -103 0
-102 -104 0
-102 -105 0
-103 -104 0
-103 -105 0
-104 -105 0
106 107 108 109 110 0
-106 -107 0
-106 -108 0
-106 -109 0
-106 -110 0
-107 -108 0
-107 -109 0
-107 -110 0
-108 -109 0
-108 -110 0
-109 -110 0
111 112 113 114 115 0
-111 -112 0
-111 -113 0
-111 -114 0
-111 -115 0
-112 -113 0
-112 -114 0
-112 -115 0
-113 -114 0
-113 -115 0
-114 -115 0
116 117 118 119 120 0
-116 -117 0
-116 -118 0
-116 -119 0
-116 -120 0
-117 -118 0
-117 -119 0
-117 -120 0
-118 -119 0
-118 -120 0
-119 -120 0
121 122 123 124 125 0
-121 -122 0
-121 -123 0
-121 -124 0
-121 -125 0
-122 -123 0
-122 -124 0
-122 -125 0
-123 -124 0
-123 -125 0
-124 -125 0
-1 -31 0
-2 -32 0
-3 -33 0
-4 -34 0
-5 -35 0
-1 -61 0
-2 -62 0
-3 -63 0
-4 -64 0
-5 -65 0
-1 -91 0
-2 -92 0
-3 -93 0
-4 -94 0
-5 -95 0
-1 -121 0
-2 -122 0
-3 -123 0
-4 -124 0
-5 -125 0
-1 -6 0
-2 -7 0
-3 -8 0
-4 -9 0
-5 -10 0
-1 -11 0
-2 -12 0
-3 -13 0
-4 -14 0
-5 -15 0
-1 -16 0
-2 -17 0
-3 -18 0
-4 -19 0
-5 -20 0
-1 -21 0
-2 -22 0
-3 -23 0
-4 -24 0
-5 -25 0
-1 -26 0
-2 -27 0
-3 -28 0
-4 -29 0
-5 -30 0
-1 -51 0
-2 -52 0
-3 -53 0
-4 -54 0
-5 -55 0
-1 -76 0
-2 -77 0
-3 -78 0
-4 -79 0
-5 -80 0
-1 -101 0
-2 -102 0
-3 -103 0
-4 -104 0
-5 -105 0
-6 -36 0
-7 -37 0
-8 -38 0
-9 -39 0
-10 -40 0
-6 -66 0
-7 -67 0
-8 -68 0
-9 -69 0
-10 -70 0
-6 -96 0
-7 -97 0
-8 -98 0
-9 -99 0
-10 -100 0
-6 -26 0
-7 -27 0
-8 -28 0
-9 -29 0
-10 -30 0
-6 -11 0
-7 -12 0
-8 -13 0
-9 -14 0
-10 -15 0
-6 -16 0
-7 -17 0
-8 -18 0
-9 -19 0
-10 -20 0
-6 -21 0
-7 -22 0
-8 -23 0
-9 -24 0
-10 -25 0
-6 -31 0
-7 -32 0
-8 -33 0
-9 -34 0
-10 -35 0
-6 -56 0
-7 -57 0
-8 -58 0
-9 -59 0
-10 -60 0
-6 -81 0
-7 -82 0
-8 -83 0
-9 -84 0
-10 -85 0
-6 -106 0
-7 -107 0
-8 -108 0
-9 -109 0
-10 -110 0
-6 -1 0
-7 -2 0
-8 -3 0
-9 -4 0
-10 -5 0
-11 -41 0
-12 -42 0
-13 -43 0
-14 -44 0
-15 -45 0
-11 -71 0
-12 -72 0
-13 -73 0
-14 -74 0
-15 -75 0
-11 -31 0
-12 -32 0
-13 -33 0
-14 -34 0
-15 -35 0
-11 -51 0
-12 -52 0
-13 -53 0
-14 -54 0
-15 -55 0
-11 -16 0
-12 -17 0
-13 -18 0
-14 -19 0
-15 -20 0
-11 -21 0
-12 -22 0
-13 -23 0
-14 -24 0
-15 -25 0
-11 -36 0
-12 -37 0
-13 -38 0
-14 -39 0
-15 -40 0
-11 -61 0
-12 -62 0
-13 -63 0
-14 -64 0
-15 -65 0
-11 -86 0
-12 -87 0
-13 -88 0
-14 -89 0
-15 -90 0
-11 -111 0
-12 -112 0
-13 -113 0
-14 -114 0
-15 -115 0
-11 -6 0
-12 -7 0
-13 -8 0
-14 -9 0
-15 -10 0
-11 -1 0
-12 -2 0
-13 -3 0
-14 -4 0
-15 -5 0
-16 -46 0
-17 -47 0
-18 -48 0
-19 -49 0
-20 -50 0
-16 -36 0
-17 -37 0
-18 -38 0
-19 -39 0
-20 -40 0
-16 -56 0
-17 -57 0
-18 -58 0
-19 -59 0
-20 -60 0
-16 -76 0
-17 -77 0
-18 -78 0
-19 -79 0
-20 -80 0
-16 -21 0
-17 -22 0
-18 -23 0
-19 -24 0
-20 -25 0
-16 -41 0
-17 -42 0
-18 -43 0
-19 -44 0
-20 -45 0
-16 -66 0
-17 -67 0
-18 -68 0
-19 -69 0
-20 -70 0
-16 -91 0
-17 -92 0
-18 -93 0
-19 -94 0
-20 -95 0
-16 -116 0
-17 -117 0
-18 -118 0
-19 -119 0
-20 -120 0
-16 -11 0
-17 -12 0
-18 -13 0
-19 -14 0
-20 -15 0
-16 -6 0
-17 -7 0
-18 -8 0
-19 -9 0
-20 -10 0
-16 -1 0
-17 -2 0
-18 -3 0
-19 -4 0
-20 -5 0
-21 -41 0
-22 -42 0
-23 -43 0
-24 -44 0
-25 -45 0
-21 -61 0
-22 -62 0
-23 -63 0
-24 -64 0
-25 -65 0
-21 -81 0
-22 -82 0
-23 -83 0
-24 -84 0
-25 -85 0
-21 -101 0
-22 -102 0
-23 -103 0
-24 -104 0
-25 -105 0
-21 -46 0
-22 -47 0
-23 -48 0
-24 -49 0
-25 -50 0
-21 -71 0
-22 -72 0
-23 -73 0
-24 -74 0
-25 -75 0
-21 -96 0
-22 -97 0
-23 -98 0
-24 -99 0
-25 -100 0
-21 -121 0
-22 -122 0
-23 -123 0
-24 -124 0
-25 -125 0
-21 -16 0
-22 -17 0
-23 -18 0
-24 -19 0
-25 -20 0
-21 -11 0
-22 -12 0
-23 -13 0
-24 -14 0
-25 -15 0
-21 -6 0
-22 -7 0
-23 -8 0
-24 -9 0
-25 -10 0
-21 -1 0
-22 -2 0
-23 -3 0
-24 -4 0
-25 -5 0
-26 -56 0
-27 -57 0
-28 -58 0
-29 -59 0
-30 -60 0
-26 -86 0
-27 -87 0
-28 -88 0
-29 -89 0
-30 -90 0
-26 -116 0
-27 -117 0
-28 -118 0
-29 -119 0
-30 -120 0
-26 -31 0
-27 -32 0
-28 -33 0
-29 -34 0
-30 -35 0
-26 -36 0
-27 -37 0
-28 -38 0
-29 -39 0
-30 -40 0
-26 -41 0
-27 -42 0
-28 -43 0
-29 -44 0
-30 -45 0
-26 -46 0
-27 -47 0
-28 -48 0
-29 -49 0
-30 -50 0
-26 -51 0
-27 -52 0
-28 -53 0
-29 -54 0
-30 -55 0
-26 -76 0
-27 -77 0
-28 -78 0
-29 -79 0
-30 -80 0
-26 -101 0
-27 -102 0
-28 -103 0
-29 -104 0
-30 -105 0
-26 -6 0
-27 -7 0
-28 -8 0
-29 -9 0
-30 -10 0
-26 -1 0
-27 -2 0
-28 -3 0
-29 -4 0
-30 -5 0
-31 -61 0
-32 -62 0
-33 -63 0
-34 -64 0
-35 -65 0
-31 -91 0
-32 -92 0
-33 -93 0
-34 -94 0
-35 -95 0
-31 -121 0
-32 -122 0
-33 -123 0
-34 -124 0
-35 -125 0
-31 -51 0
-32 -52 0
-33 -53 0
-34 -54 0
-35 -55 0
-31 -36 0
-32 -37 0
-33 -38 0
-34 -39 0
-35 -40 0
-31 -41 0
-32 -42 0
-33 -43 0
-34 -44 0
-35 -45 0
-31 -46 0
-32 -47 0
-33 -48 0
-34 -49 0
-35 -50 0
-31 -56 0
-32 -57 0
-33 -58 0
-34 -59 0
-35 -60 0
-31 -81 0
-32 -82 0
-33 -83 0
-34 -84 0
-35 -85 0
-31 -106 0
-32 -107 0
-33 -108 0
-34 -109 0
-35 -110 0
-31 -26 0
-32 -27 0
-33 -28 0
-34 -29 0
-35 -30 0
-31 -11 0
-32 -12 0
-33 -13 0
-34 -14 0
-35 -15 0
-31 -6 0
-32 -7 0
-33 -8 0
-34 -9 0
-35 -10 0
-31 -1 0
-32 -2 0
-33 -3 0
-34 -4 0
-35 -5 0
-36 -66 0
-37 -67 0
-38 -68 0
-39 -69 0
-40 -70 0
-36 -96 0
-37 -97 0
-38 -98 0
-39 -99 0
-40 -100 0
-36 -56 0
-37 -57 0
-38 -58 0
-39 -59 0
-40 -60 0
-36 -76 0
-37 -77 0
-38 -78 0
-39 -79 0
-40 -80 0
-36 -41 0
-37 -42 0
-38 -43 0
-39 -44 0
-40 -45 0
-36 -46 0
-37 -47 0
-38 -48 0
-39 -49 0
-40 -50 0
-36 -61 0
-37 -62 0
-38 -63 0
-39 -64 0
-40 -65 0
-36 -86 0
-37 -87 0
-38 -88 0
-39 -89 0
-40 -90 0
-36 -111 0
-37 -112 0
-38 -113 0
-39 -114 0
-40 -115 0
-36 -31 0
-37 -32 0
-38 -33 0
-39 -34 0
-40 -35 0
-36 -26 0
-37 -27 0
-38 -28 0
-39 -29 0
-40 -30 0
-36 -16 0
-37 -17 0
-38 -18 0
-39 -19 0
-40 -20 0
-36 -11 0
-37 -12 0
-38 -13 0
-39 -14 0
-40 -15 0
-36 -6 0
-37 -7 0
-38 -8 0
-39 -9 0
-40 -10 0
-41 -71 0
-42 -72 0
-43 -73 0
-44 -74 0
-45 -75 0
-41 -61 0
-42 -62 0
-43 -63 0
-44 -64 0
-45 -65 0
-41 -81 0
-42 -82 0
-43 -83 0
-44 -84 0
-45 -85 0
-41 -101 0
-42 -102 0
-43 -103 0
-44 -104 0
-45 -105 0
-41 -46 0
-42 -47 0
-43 -48 0
-44 -49 0
-45 -50 0
-41 -66 0
-42 -67 0
-43 -68 0
-44 -69 0
-45 -70 0
-41 -91 0
-42 -92 0
-43 -93 0
-44 -94 0
-45 -95 0
-41 -116 0
-42 -117 0
-43 -118 0
-44 -119 0
-45 -120 0
-41 -36 0
-42 -37 0
-43 -38 0
-44 -39 0
-45 -40 0
-41 -31 0
-42 -32 0
-43 -33 0
-44 -34 0
-45 -35 0
-41 -26 0
-42 -27 0
-43 -28 0
-44 -29 0
-45 -30 0
-41 -21 0
-42 -22 0
-43 -23 0
-44 -24 0
-45 -25 0
-41 -16 0
-42 -17 0
-43 -18 0
-44 -19 0
-45 -20 0
-41 -11 0
-42 -12 0
-43 -13 0
-44 -14 0
-45 -15 0
-46 -66 0
-47 -67 0
-48 -68 0
-49 -69 0
-50 -70 0
-46 -86 0
-47 -87 0
-48 -88 0
-49 -89 0
-50 -90 0
-46 -106 0
-47 -107 0
-48 -108 0
-49 -109 0
-50 -110 0
-46 -71 0
-47 -72 0
-48 -73 0
-49 -74 0
-50 -75 0
-46 -96 0
-47 -97 0
-48 -98 0
-49 -99 0
-50 -100 0
-46 -121 0
-47 -122 0
-48 -123 0
-49 -124 0
-50 -125 0
-46 -41 0
-47 -42 0
-48 -43 0
-49 -44 0
-50 -45 0
-46 -36 0
-47 -37 0
-48 -38 0
-49 -39 0
-50 -40 0
-46 -31 0
-47 -32 0
-48 -33 0
-49 -34 0
-50 -35 0
-46 -26 0
-47 -27 0
-48 -28 0
-49 -29 0
-50 -30 0
-46 -21 0
-47 -22 0
-48 -23 0
-49 -24 0
-50 -25 0
-46 -16 0
-47 -17 0
-48 -18 0
-49 -19 0
-50 -20 0
-51 -81 0
-52 -82 0
-53 -83 0
-54 -84 0
-55 -85 0
-51 -111 0
-52 -112 0
-53 -113 0
-54 -114 0
-55 -115 0
-51 -56 0
-52 -57 0
-53 -58 0
-54 -59 0
-55 -60 0
-51 -61 0
-52 -62 0
-53 -63 0
-54 -64 0
-55 -65 0
-51 -66 0
-52 -67 0
-53 -68 0
-54 -69 0
-55 -70 0
-51 -71 0
-52 -72 0
-53 -73 0
-54 -74 0
-55 -75 0
-51 -76 0
-52 -77 0
-53 -78 0
-54 -79 0
-55 -80 0
-51 -101 0
-52 -102 0
-53 -103 0
-54 -104 0
-55 -105 0
-51 -31 0
-52 -32 0
-53 -33 0
-54 -34 0
-55 -35 0
-51 -26 0
-52 -27 0
-53 -28 0
-54 -29 0
-55 -30 0
-51 -11 0
-52 -12 0
-53 -13 0
-54 -14 0
-55 -15 0
-51 -1 0
-52 -2 0
-53 -3 0
-54 -4 0
-55 -5 0
-56 -86 0
-57 -87 0
-58 -88 0
-59 -89 0
-60 -90 0
-56 -116 0
-57 -117 0
-58 -118 0
-59 -119 0
-60 -120 0
-56 -76 0
-57 -77 0
-58 -78 0
-59 -79 0
-60 -80 0
-56 -61 0
-57 -62 0
-58 -63 0
-59 -64 0
-60 -65 0
-56 -66 0
-57 -67 0
-58 -68 0
-59 -69 0
-60 -70 0
-56 -71 0
-57 -72 0
-58 -73 0
-59 -74 0
-60 -75 0
-56 -81 0
-57 -82 0
-58 -83 0
-59 -84 0
-60 -85 0
-56 -106 0
-57 -107 0
-58 -108 0
-59 -109 0
-60 -110 0
-56 -51 0
-57 -52 0
-58 -53 0
-59 -54 0
-60 -55 0
-56 -36 0
-57 -37 0
-58 -38 0
-59 -39 0
-60 -40 0
-56 -31 0
-57 -32 0
-58 -33 0
-59 -34 0
-60 -35 0
-56 -26 0
-57 -27 0
-58 -28 0
-59 -29 0
-60 -30 0
-56 -16 0
-57 -17 0
-58 -18 0
-59 -19 0
-60 -20 0
-56 -6 0
-57 -7 0
-58 -8 0
-59 -9 0
-60 -10 0
-61 -91 0
-62 -92 0
-63 -93 0
-64 -94 0
-65 -95 0
-61 -121 0
-62 -122 0
-63 -123 0
-64 -124 0
-65 -125 0
-61 -81 0
-62 -82 0
-63 -83 0
-64 -84 0
-65 -85 0
-61 -101 0
-62 -102 0
-63 -103 0
-64 -104 0
-65 -105 0
-61 -66 0
-62 -67 0
-63 -68 0
-64 -69 0
-65 -70 0
-61 -71 0
-62 -72 0
-63 -73 0
-64 -74 0
-65 -75 0
-61 -86 0
-62 -87 0
-63 -88 0
-64 -89 0
-65 -90 0
-61 -111 0
-62 -112 0
-63 -113 0
-64 -114 0
-65 -115 0
-61 -56 0
-62 -57 0
-63 -58 0
-64 -59 0
-65 -60 0
-61 -51 0
-62 -52 0
-63 -53 0
-64 -54 0
-65 -55 0
-61 -41 0
-62 -42 0
-63 -43 0
-64 -44 0
-65 -45 0
-61 -36 0
-62 -37 0
-63 -38 0
-64 -39 0
-65 -40 0
-61 -31 0
-62 -32 0
-63 -33 0
-64 -34 0
-65 -35 0
-61 -21 0
-62 -22 0
-63 -23 0
-64 -24 0
-65 -25 0
-61 -11 0
-62 -12 0
-63 -13 0
-64 -14 0
-65 -15 0
-61 -1 0
-62 -2 0
-63 -3 0
-64 -4 0
-65 -5 0
-66 -96 0
-67 -97 0
-68 -98 0
-69 -99 0
-70 -100 0
-66 -86 0
-67 -87 0
-68 -88 0
-69 -89 0
-70 -90 0
-66 -106 0
-67 -107 0
-68 -108 0
-69 -109 0
-70 -110 0
-66 -71 0
-67 -72 0
-68 -73 0
-69 -74 0
-70 -75 0
-66 -91 0
-67 -92 0
-68 -93 0
-69 -94 0
-70 -95 0
-66 -116 0
-67 -117 0
-68 -118 0
-69 -119 0
-70 -120 0
-66 -61 0
-67 -62 0
-68 -63 0
-69 -64 0
-70 -65 0
-66 -56 0
-67 -57 0
-68 -58 0
-69 -59 0
-70 -60 0
-66 -51 0
-67 -52 0
-68 -53 0
-69 -54 0
-70 -55 0
-66 -46 0
-67 -47 0
-68 -48 0
-69 -49 0
-70 -50 0
-66 -41 0
-67 -42 0
-68 -43 0
-69 -44 0
-70 -45 0
-66 -36 0
-67 -37 0
-68 -38 0
-69 -39 0
-70 -40 0
-66 -16 0
-67 -17 0
-68 -18 0
-69 -19 0
-70 -20 0
-66 -6 0
-67 -7 0
-68 -8 0
-69 -9 0
-70 -10 0
-71 -91 0
-72 -92 0
-73 -93 0
-74 -94 0
-75 -95 0
-71 -111 0
-72 -112 0
-73 -113 0
-74 -114 0
-75 -115 0
-71 -96 0
-72 -97 0
-73 -98 0
-74 -99 0
-75 -100 0
-71 -121 0
-72 -122 0
-73 -123 0
-74 -124 0
-75 -125 0
-71 -66 0
-72 -67 0
-73 -68 0
-74 -69 0
-75 -70 0
-71 -61 0
-72 -62 0
-73 -63 0
-74 -64 0
-75 -65 0
-71 -56 0
-72 -57 0
-73 -58 0
-74 -59 0
-75 -60 0
-71 -51 0
-72 -52 0
-73 -53 0
-74 -54 0
-75 -55 0
-71 -46 0
-72 -47 0
-73 -48 0
-74 -49 0
-75 -50 0
-71 -41 0
-72 -42 0
-73 -43 0
-74 -44 0
-75 -45 0
-71 -21 0
-72 -22 0
-73 -23 0
-74 -24 0
-75 -25 0
-71 -11 0
-72 -12 0
-73 -13 0
-74 -14 0
-75 -15 0
-76 -106 0
-77 -107 0
-78 -108 0
-79 -109 0
-80 -110 0
-76 -81 0
-77 -82 0
-78 -83 0
-79 -84 0
-80 -85 0
-76 -86 0
-77 -87 0
-78 -88 0
-79 -89 0
-80 -90 0
-76 -91 0
-77 -92 0
-78 -93 0
-79 -94 0
-80 -95 0
-76 -96 0
-77 -97 0
-78 -98 0
-79 -99 0
-80 -100 0
-76 -101 0
-77 -102 0
-78 -103 0
-79 -104 0
-80 -105 0
-76 -56 0
-77 -57 0
-78 -58 0
-79 -59 0
-80 -60 0
-76 -51 0
-77 -52 0
-78 -53 0
-79 -54 0
-80 -55 0
-76 -36 0
-77 -37 0
-78 -38 0
-79 -39 0
-80 -40 0
-76 -26 0
-77 -27 0
-78 -28 0
-79 -29 0
-80 -30 0
-76 -16 0
-77 -17 0
-78 -18 0
-79 -19 0
-80 -20 0
-76 -1 0
-77 -2 0
-78 -3 0
-79 -4 0
-80 -5 0
-81 -111 0
-82 -112 0
-83 -113 0
-84 -114 0
-85 -115 0
-81 -101 0
-82 -102 0
-83 -103 0
-84 -104 0
-85 -105 0
-81 -86 0
-82 -87 0
-83 -88 0
-84 -89 0
-85 -90 0
-81 -91 0
-82 -92 0
-83 -93 0
-84 -94 0
-85 -95 0
-81 -96 0
-82 -97 0
-83 -98 0
-84 -99 0
-85 -100 0
-81 -106 0
-82 -107 0
-83 -108 0
-84 -109 0
-85 -110 0
-81 -76 0
-82 -77 0
-83 -78 0
-84 -79 0
-85 -80 0
-81 -61 0
-82 -62 0
-83 -63 0
-84 -64 0
-85 -65 0
-81 -56 0
-82 -57 0
-83 -58 0
-84 -59 0
-85 -60 0
-81 -51 0
-82 -52 0
-83 -53 0
-84 -54 0
-85 -55 0
-81 -41 0
-82 -42 0
-83 -43 0
-84 -44 0
-85 -45 0
-81 -31 0
-82 -32 0
-83 -33 0
-84 -34 0
-85 -35 0
-81 -21 0
-82 -22 0
-83 -23 0
-84 -24 0
-85 -25 0
-81 -6 0
-82 -7 0
-83 -8 0
-84 -9 0
-85 -10 0
-86 -116 0
-87 -117 0
-88 -118 0
-89 -119 0
-90 -120 0
-86 -106 0
-87 -107 0
-88 -108 0
-89 -109 0
-90 -110 0
-86 -91 0
-87 -92 0
-88 -93 0
-89 -94 0
-90 -95 0
-86 -96 0
-87 -97 0
-88 -98 0
-89 -99 0
-90 -100 0
-86 -111 0
-87 -112 0
-88 -113 0
-89 -114 0
-90 -115 0
-86 -81 0
-87 -82 0
-88 -83 0
-89 -84 0
-90 -85 0
-86 -76 0
-87 -77 0
-88 -78 0
-89 -79 0
-90 -80 0
-86 -66 0
-87 -67 0
-88 -68 0
-89 -69 0
-90 -70 0
-86 -61 0
-87 -62 0
-88 -63 0
-89 -64 0
-90 -65 0
-86 -56 0
-87 -57 0
-88 -58 0
-89 -59 0
-90 -60 0
-86 -46 0
-87 -47 0
-88 -48 0
-89 -49 0
-90 -50 0
-86 -36 0
-87 -37 0
-88 -38 0
-89 -39 0
-90 -40 0
-86 -26 0
-87 -27 0
-88 -28 0
-89 -29 0
-90 -30 0
-86 -11 0
-87 -12 0
-88 -13 0
-89 -14 0
-90 -15 0
-91 -121 0
-92 -122 0
-93 -123 0
-94 -124 0
-95 -125 0
-91 -111 0
-92 -112 0
-93 -113 0
-94 -114 0
-95 -115 0
-91 -96 0
-92 -97 0
-93 -98 0
-94 -99 0
-95 -100 0
-91 -116 0
-92 -117 0
-93 -118 0
-94 -119 0
-95 -120 0
-91 -86 0
-92 -87 0
-93 -88 0
-94 -89 0
-95 -90 0
-91 -81 0
-92 -82 0
-93 -83 0
-94 -84 0
-95 -85 0
-91 -76 0
-92 -77 0
-93 -78 0
-94 -79 0
-95 -80 0
-91 -71 0
-92 -72 0
-93 -73 0
-94 -74 0
-95 -75 0
-91 -66 0
-92 -67 0
-93 -68 0
-94 -69 0
-95 -70 0
-91 -61 0
-92 -62 0
-93 -63 0
-94 -64 0
-95 -65 0
-91 -41 0
-92 -42 0
-93 -43 0
-94 -44 0
-95 -45 0
-91 -31 0
-92 -32 0
-93 -33 0
-94 -34 0
-95 -35 0
-91 -16 0
-92 -17 0
-93 -18 0
-94 -19 0
-95 -20 0
-91 -1 0
-92 -2 0
-93 -3 0
-94 -4 0
-95 -5 0
-96 -116 0
-97 -117 0
-98 -118 0
-99 -119 0
-100 -120 0
-96 -121 0
-97 -122 0
-98 -123 0
-99 -124 0
-100 -125 0
-96 -91 0
-97 -92 0
-98 -93 0
-99 -94 0
-100 -95 0
-96 -86 0
-97 -87 0
-98 -88 0
-99 -89 0
-100 -90 0
-96 -81 0
-97 -82 0
-98 -83 0
-99 -84 0
-100 -85 0
-96 -76 0
-97 -77 0
-98 -78 0
-99 -79 0
-100 -80 0
-96 -71 0
-97 -72 0
-98 -73 0
-99 -74 0
-100 -75 0
-96 -66 0
-97 -67 0
-98 -68 0
-99 -69 0
-100 -70 0
-96 -46 0
-97 -47 0
-98 -48 0
-99 -49 0
-100 -50 0
-96 -36 0
-97 -37 0
-98 -38 0
-99 -39 0
-100 -40 0
-96 -21 0
-97 -22 0
-98 -23 0
-99 -24 0
-100 -25 0
-96 -6 0
-97 -7 0
-98 -8 0
-99 -9 0
-100 -10 0
-101 -106 0
-102 -107 0
-103 -108 0
-104 -109 0
-105 -110 0
-101 -111 0
-102 -112 0
-103 -113 0
-104 -114 0
-105 -115 0
-101 -116 0
-102 -117 0
-103 -118 0
-104 -119 0
-105 -120 0
-101 -121 0
-102 -122 0
-103 -123 0
-104 -124 0
-105 -125 0
-101 -81 0
-102 -82 0
-103 -83 0
-104 -84 0
-105 -85 0
-101 -76 0
-102 -77 0
-103 -78 0
-104 -79 0
-105 -80 0
-101 -61 0
-102 -62 0
-103 -63 0
-104 -64 0
-105 -65 0
-101 -51 0
-102 -52 0
-103 -53 0
-104 -54 0
-105 -55 0
-101 -41 0
-102 -42 0
-103 -43 0
-104 -44 0
-105 -45 0
-101 -26 0
-102 -27 0
-103 -28 0
-104 -29 0
-105 -30 0
-101 -21 0
-102 -22 0
-103 -23 0
-104 -24 0
-105 -25 0
-101 -1 0
-102 -2 0
-103 -3 0
-104 -4 0
-105 -5 0
-106 -111 0
-107 -112 0
-108 -113 0
-109 -114 0
-110 -115 0
-106 -116 0
-107 -117 0
-108 -118 0
-109 -119 0
-110 -120 0
-106 -121 0
-107 -122 0
-108 -123 0
-109 -124 0
-110 -125 0
-106 -101 0
-107 -102 0
-108 -103 0
-109 -104 0
-110 -105 0
-106 -86 0
-107 -87 0
-108 -88 0
-109 -89 0
-110 -90 0
-106 -81 0
-107 -82 0
-108 -83 0
-109 -84 0
-110 -85 0
-106 -76 0
-107 -77 0
-108 -78 0
-109 -79 0
-110 -80 0
-106 -66 0
-107 -67 0
-108 -68 0
-109 -69 0
-110 -70 0
-106 -56 0
-107 -57 0
-108 -58 0
-109 -59 0
-110 -60 0
-106 -46 0
-107 -47 0
-108 -48 0
-109 -49 0
-110 -50 0
-106 -31 0
-107 -32 0
-108 -33 0
-109 -34 0
-110 -35 0
-106 -6 0
-107 -7 0
-108 -8 0
-109 -9 0
-110 -10 0
-111 -116 0
-112 -117 0
-113 -118 0
-114 -119 0
-115 -120 0
-111 -121 0
-112 -122 0
-113 -123 0
-114 -124 0
-115 -125 0
-111 -106 0
-112 -107 0
-113 -108 0
-114 -109 0
-115 -110 0
-111 -101 0
-112 -102 0
-113 -103 0
-114 -104 0
-115 -105 0
-111 -91 0
-112 -92 0
-113 -93 0
-114 -94 0
-115 -95 0
-111 -86 0
-112 -87 0
-113 -88 0
-114 -89 0
-115 -90 0
-111 -81 0
-112 -82 0
-113 -83 0
-114 -84 0
-115 -85 0
-111 -71 0
-112 -72 0
-113 -73 0
-114 -74 0
-115 -75 0
-111 -61 0
-112 -62 0
-113 -63 0
-114 -64 0
-115 -65 0
-111 -51 0
-112 -52 0
-113 -53 0
-114 -54 0
-115 -55 0
-111 -36 0
-112 -37 0
-113 -38 0
-114 -39 0
-115 -40 0
-111 -11 0
-112 -12 0
-113 -13 0
-114 -14 0
-115 -15 0
-116 -121 0
-117 -122 0
-118 -123 0
-119 -124 0
-120 -125 0
-116 -111 0
-117 -112 0
-118 -113 0
-119 -114 0
-120 -115 0
-116 -106 0
-117 -107 0
-118 -108 0
-119 -109 0
-120 -110 0
-116 -101 0
-117 -102 0
-118 -103 0
-119 -104 0
-120 -105 0
-116 -96 0
-117 -97 0
-118 -98 0
-119 -99 0
-120 -100 0
-116 -91 0
-117 -92 0
-118 -93 0
-119 -94 0
-120 -95 0
-116 -86 0
-117 -87 0
-118 -88 0
-119 -89 0
-120 -90 0
-116 -66 0
-117 -67 0
-118 -68 0
-119 -69 0
-120 -70 0
-116 -56 0
-117 -57 0
-118 -58 0
-119 -59 0
-120 -60 0
-116 -41 0
-117 -42 0
-118 -43 0
-119 -44 0
-120 -45 0
-116 -26 0
-117 -27 0
-118 -28 0
-119 -29 0
-120 -30 0
-116 -16 0
-117 -17 0
-118 -18 0
-119 -19 0
-120 -20 0
-121 -116 0
-122 -117 0
-123 -118 0
-124 -119 0
-125 -120 0
-121 -111 0
-122 -112 0
-123 -113 0
-124 -114 0
-125 -115 0
-121 -106 0
-122 -107 0
-123 -108 0
-124 -109 0
-125 -110 0
-121 -101 0
-122 -102 0
-123 -103 0
-124 -104 0
-125 -105 0
-121 -96 0
-122 -97 0
-123 -98 0
-124 -99 0
-125 -100 0
-121 -91 0
-122 -92 0
-123 -93 0
-124 -94 0
-125 -95 0
-121 -71 0
-122 -72 0
-123 -73 0
-124 -74 0
-125 -75 0
-121 -61 0
-122 -62 0
-123 -63 0
-124 -64 0
-125 -65 0
-121 -46 0
-122 -47 0
-123 -48 0
-124 -49 0
-125 -50 0
-121 -31 0
-122 -32 0
-123 -33 0
-124 -34 0
-125 -35 0
-121 -21 0
-122 -22 0
-123 -23 0
-124 -24 0
-125 -25 0
-121 -1 0
-122 -2 0
-123 -3 0
-124 -4 0
-125 -5 0